c
p cnf 21 67
-11 9 0
-20 -17 0
-5 -14 0
16 -12 0
-13 12 0
5 -8 0
20 -8 0
-19 -11 0
11 9 0
8 -3 0
15 -21 0
-11 21 0
17 8 0
-6 20 0
-12 -7 0
-12 7 0
-9 5 0
11 20 0
-17 20 0
-6 -1 0
4 -5 0
-19 1 0
6 -17 0
6 -19 0
20 4 0
-5 -3 0
7 20 0
9 -7 0
6 -14 0
3 4 0
8 20 0
15 -16 0
6 18 0
15 21 0
6 21 0
-15 -20 0
3 -21 0
9 -16 0
21 13 0
16 -10 0
1 -3 0
9 18 0
12 11 0
-20 18 0
18 14 0
-3 -7 0
-20 3 0
-8 11 0
-6 -17 0
-2 -10 0
-14 20 0
7 -9 0
-16 -17 0
21 -2 0
15 -7 0
-14 -11 0
16 10 0
-16 1 0
3 1 0
18 -11 0
-6 16 0
13 5 0
-20 7 0
-10 17 0
1 -4 0
-2 17 0
5 -10 0
